# Generated by ConicBenchmarkUtilities.jl
VER
2

OBJSENSE
MIN

VAR
24 1
F 24

INT
5
5
6
7
8
9

CON
65 59
L= 1
L= 1
L= 1
L= 1
L= 1
EXP 3
L+ 1
L+ 1
L+ 1
EXP 3
L+ 1
L+ 1
L+ 1
L+ 1
L+ 1
L+ 1
L+ 1
EXP 3
L+ 1
L+ 1
L+ 1
L+ 1
L+ 1
L+ 1
L+ 1
L+ 1
L+ 1
L+ 1
L= 1
L+ 1
L+ 1
L+ 1
L+ 1
L+ 1
L+ 1
L+ 1
L+ 1
L+ 1
L+ 1
L+ 1
L+ 1
L+ 1
L+ 1
L+ 1
L+ 1
L+ 1
L+ 1
L+ 1
L+ 1
L+ 1
L+ 1
L+ 1
L+ 1
L+ 1
L+ 1
L+ 1
L+ 1
L+ 1
L+ 1

OBJACOORD
1
10 -1.0

ACOORD
117
0 0 5.0
3 0 -1.0
45 0 1.0
0 1 -2.0
29 1 0.5
30 1 -0.5
32 1 -1.0
50 1 1.0
51 1 -1.0
0 2 200.0
17 2 -1.0
18 2 1.0
20 2 -1.0
52 2 1.0
0 3 250.0
24 3 -1.0
26 3 -1.0
53 3 1.0
0 4 300.0
27 4 -1.0
28 4 1.0
29 4 -1.0
30 4 1.0
33 4 -1.0
54 4 1.0
0 5 -5.0
8 5 -1.0
9 5 10.0
10 5 2.39789527279837
34 5 1.0
35 5 1.0
36 5 1.0
37 5 1.0
55 5 1.0
56 5 -1.0
0 6 -8.0
14 6 -1.0
15 6 10.0
16 6 2.87747432735804
34 6 1.0
35 6 1.0
36 6 1.0
37 6 1.0
57 6 1.0
58 6 -1.0
0 7 -6.0
17 7 -1.0
18 7 -1.0
19 7 2.87747432735804
20 7 2.15810574551853
35 7 -1.0
59 7 1.0
60 7 -1.0
0 8 -10.0
24 8 -1.0
25 8 2.87747432735804
26 8 2.03277599268042
36 8 -1.0
61 8 1.0
62 8 -1.0
0 9 -6.0
27 9 -1.0
28 9 -1.0
29 9 -1.0
30 9 -1.0
31 9 2.87747432735804
32 9 7.0
33 9 3.5
37 9 -1.0
63 9 1.0
64 9 -1.0
0 10 -1.0
1 11 1.0
38 11 1.0
39 11 -1.0
1 12 -1.0
5 12 1.0
9 12 -1.0
40 12 1.0
1 13 -1.0
11 13 1.0
15 13 -1.0
41 13 1.0
2 14 -1.0
8 14 -1.0
10 14 -1.0
42 14 1.0
2 15 -1.0
14 15 -1.0
16 15 -1.0
43 15 1.0
2 16 1.0
3 16 1.0
44 16 1.0
3 17 -1.0
4 17 1.0
46 17 1.0
4 18 -1.0
17 18 0.75
18 18 -0.75
19 18 -1.0
47 18 1.0
4 19 -1.0
21 19 1.0
25 19 -1.0
48 19 1.0
4 20 -1.0
27 20 1.0
28 20 -1.0
31 20 -1.0
49 20 1.0
7 21 1.0
8 21 1.0
13 22 1.0
14 22 1.2
23 23 1.0
24 23 1.5

BCOORD
23
5 1.0
6 1.0
8 1.0
11 1.0
12 1.0
14 1.0
17 1.0
18 1.0
21 1.0
22 1.0
24 1.0
27 1.0
28 1.0
29 1.0
30 1.0
34 -1.0
39 10.0
51 7.0
56 1.0
58 1.0
60 1.0
62 1.0
64 1.0
